lattice_vector      4.50531387      0.00000000      0.00000000
lattice_vector      0.00000000      4.50531387      0.00000000
lattice_vector      0.00000000      0.00000000      3.17670624
atom_frac       0.50000026      0.50000019      0.50000200 Ir
atom_frac       0.00000006      0.00000023     -0.00000193 Ir
atom_frac       0.69146747      0.69146828      0.00000207 O
atom_frac       0.19146629      0.80853186      0.49999790 O
atom_frac       0.30853297      0.30853175      0.00000207 O
atom_frac       0.80853295      0.19146769      0.49999790 O
